\ Model Cl_45_Ins_9.lp
\ LP format - for model browsing. Use MPS format to capture full model detail.
Maximize
 
Subject To
 obj1: y[0] = 0
 obj2: y[1] = 0
 obj1_Exp: - y[0] + 96 x[0] + 95 x[1] + 95 x[2] + 95 x[3] + 84 x[4]
   + 83 x[5] + 81 x[6] + 80 x[7] + 78 x[8] + 78 x[9] + 72 x[10] + 71 x[11]
   + 66 x[12] + 64 x[13] + 62 x[14] + 61 x[15] + 61 x[16] + 60 x[17]
   + 59 x[18] + 55 x[19] + 55 x[20] + 51 x[21] + 49 x[22] + 48 x[23]
   + 48 x[24] + 47 x[25] + 47 x[26] + 45 x[27] + 43 x[28] + 39 x[29]
   + 36 x[30] + 34 x[31] + 31 x[32] + 26 x[33] + 25 x[34] + 20 x[35]
   + 20 x[36] + 16 x[37] + 15 x[38] + 12 x[39] + 9 x[40] + 9 x[41]
   + 8 x[42] + 5 x[43] + 3 x[44] = 0
 obj2_Exp: - y[1] + 44 x[0] + 26 x[1] + 70 x[2] + 47 x[3] + 55 x[4]
   + 67 x[5] + 60 x[6] + 78 x[7] + 86 x[8] + 56 x[9] + 62 x[10] + 57 x[11]
   + 82 x[12] + 68 x[13] + 63 x[14] + 87 x[15] + 76 x[16] + 94 x[17]
   + 52 x[18] + 96 x[19] + 28 x[20] + 19 x[21] + 28 x[22] + 56 x[23]
   + 54 x[24] + 47 x[25] + 17 x[26] + 15 x[27] + 18 x[28] + 51 x[29]
   + 11 x[30] + 25 x[31] + 86 x[32] + 60 x[33] + 15 x[34] + 9 x[35]
   + 88 x[36] + 41 x[37] + 59 x[38] + 36 x[39] + 30 x[40] + 5 x[41]
   + 68 x[42] + 95 x[43] + 79 x[44] = 0
 Budget: 106 x[0] + 105 x[1] + 105 x[2] + 105 x[3] + 94 x[4] + 93 x[5]
   + 91 x[6] + 90 x[7] + 88 x[8] + 88 x[9] + 82 x[10] + 81 x[11] + 76 x[12]
   + 74 x[13] + 72 x[14] + 71 x[15] + 71 x[16] + 70 x[17] + 69 x[18]
   + 65 x[19] + 65 x[20] + 61 x[21] + 59 x[22] + 58 x[23] + 58 x[24]
   + 57 x[25] + 57 x[26] + 55 x[27] + 53 x[28] + 49 x[29] + 46 x[30]
   + 44 x[31] + 41 x[32] + 36 x[33] + 35 x[34] + 30 x[35] + 30 x[36]
   + 26 x[37] + 25 x[38] + 22 x[39] + 19 x[40] + 19 x[41] + 18 x[42]
   + 15 x[43] + 13 x[44] <= 927
Bounds
Binaries
 x[0] x[1] x[2] x[3] x[4] x[5] x[6] x[7] x[8] x[9] x[10] x[11] x[12] x[13]
 x[14] x[15] x[16] x[17] x[18] x[19] x[20] x[21] x[22] x[23] x[24] x[25]
 x[26] x[27] x[28] x[29] x[30] x[31] x[32] x[33] x[34] x[35] x[36] x[37]
 x[38] x[39] x[40] x[41] x[42] x[43] x[44]
Generals
 y[0] y[1]
End
